Route #1: 1 36 22 3 40 14 19 8 21 17 41 39 9 1
Route #2: 1 33 10 11 23 6 15 7 1
Route #3: 1 13 29 4 12 44 42 32 1
Route #4: 1 18 24 26 16 43 2 1
Route #5: 1 25 34 28 45 1
Route #6: 1 38 31 20 37 30 1
Route #7: 1 35 27 5 1
cost 1321.2444240165732